InboundTrucks  = 10;
OutboundTrucks = 8;
InboundDoors   = 3;
OutboundDoors  = 3;
ReleaseTimes    = [0, 1, 2, 0, 3, 1, 4, 2, 0, 5,];
UnloadingTimes  = [5, 7, 4, 6, 3, 8, 5, 4, 6, 7,];
LoadingTimes    = [6, 5, 7, 4, 8, 5, 6, 7,];
TransferMatrix  = [| 2, 1, 3, 2, 1, 3, 2, 1,
                   | 1, 3, 2, 1, 3, 2, 1, 3,
                   | 3, 2, 1, 3, 2, 1, 3, 2,
                   | 2, 1, 2, 1, 2, 1, 2, 1,
                   | 1, 2, 3, 2, 1, 2, 3, 2,
                   | 3, 1, 2, 3, 1, 2, 3, 1,
                   | 2, 3, 1, 2, 3, 1, 2, 3,
                   | 1, 2, 3, 1, 2, 3, 1, 2,
                   | 3, 1, 2, 3, 1, 2, 3, 1,
                   | 2, 3, 1, 2, 3, 1, 2, 3,
                   ];
